
Gurobi 9.0.1 (linux64) logging started Thu Apr 30 15:16:07 2020

Gurobi Optimizer version 9.0.1 build v9.0.1rc0 (linux64)
Optimize a model with 11327 rows, 12060 columns and 198990 nonzeros
Model fingerprint: 0x84709562
Variable types: 0 continuous, 12060 integer (12032 binary)
Coefficient statistics:
  Matrix range     [1e+00, 1e+01]
  Objective range  [3e+00, 1e+02]
  Bounds range     [1e+00, 1e+00]
  RHS range        [1e+00, 1e+00]

User MIP start produced solution with objective 980 (0.29s)
Loaded user MIP start with objective 980

Presolve removed 928 rows and 1887 columns
Presolve time: 2.85s
Presolved: 10399 rows, 10173 columns, 162246 nonzeros
Variable types: 0 continuous, 10173 integer (10147 binary)

Root simplex log...

Iteration    Objective       Primal Inf.    Dual Inf.      Time
    3079    4.3703587e+02   3.759630e+03   0.000000e+00      5s
    6589    4.6431889e+02   2.557683e+03   0.000000e+00     10s
    8539    4.6662771e+02   5.252951e+02   0.000000e+00     15s
   10294    4.6766403e+02   8.535287e+03   0.000000e+00     20s
   12235    4.6840923e+02   1.007965e+03   0.000000e+00     25s
   13754    4.6884738e+02   3.223133e+02   0.000000e+00     30s
   15031    4.6912723e+02   7.311501e+02   0.000000e+00     35s
   16416    4.6935121e+02   3.764720e+02   0.000000e+00     41s
   17629    4.6946377e+02   2.723265e+01   0.000000e+00     45s
   18239    4.6948585e+02   0.000000e+00   0.000000e+00     48s

Root relaxation: objective 4.694858e+02, 18239 iterations, 44.07 seconds

    Nodes    |    Current Node    |     Objective Bounds      |     Work
 Expl Unexpl |  Obj  Depth IntInf | Incumbent    BestBd   Gap | It/Node Time

     0     0  469.48585    0 3663  980.00000  469.48585  52.1%     -   50s
     0     0  488.04468    0 3592  980.00000  488.04468  50.2%     -  133s
H    0     0                     957.0000000  488.04468  49.0%     -  136s
     0     0  488.17673    0 3604  957.00000  488.17673  49.0%     -  144s
     0     0  488.17841    0 3606  957.00000  488.17841  49.0%     -  145s
     0     0  514.00651    0 3524  957.00000  514.00651  46.3%     -  255s
     0     0  514.10564    0 3530  957.00000  514.10564  46.3%     -  277s
     0     0  514.13468    0 3526  957.00000  514.13468  46.3%     -  286s
     0     0  514.13524    0 3529  957.00000  514.13524  46.3%     -  287s
     0     0  529.63030    0 3615  957.00000  529.63030  44.7%     -  524s
     0     0  529.94559    0 3594  957.00000  529.94559  44.6%     -  556s
     0     0  529.97728    0 3589  957.00000  529.97728  44.6%     -  565s
     0     0  529.98371    0 3599  957.00000  529.98371  44.6%     -  569s
     0     0  536.37002    0 3605  957.00000  536.37002  44.0%     -  817s
     0     0  537.65290    0 3562  957.00000  537.65290  43.8%     -  893s
     0     0  538.10493    0 3590  957.00000  538.10493  43.8%     -  935s
     0     0  538.14087    0 3565  957.00000  538.14087  43.8%     -  947s
     0     0  538.14420    0 3581  957.00000  538.14420  43.8%     -  950s
     0     0  539.61174    0 3610  957.00000  539.61174  43.6%     - 1049s
     0     0  539.74651    0 3635  957.00000  539.74651  43.6%     - 1077s
     0     0  539.78042    0 3633  957.00000  539.78042  43.6%     - 1089s
     0     0  539.78833    0 3624  957.00000  539.78833  43.6%     - 1094s
     0     0  540.82691    0 3601  957.00000  540.82691  43.5%     - 1175s
     0     0  541.21943    0 3629  957.00000  541.21943  43.4%     - 1225s
     0     0  541.26877    0 3640  957.00000  541.26877  43.4%     - 1241s
     0     0  541.27999    0 3644  957.00000  541.27999  43.4%     - 1248s
     0     0  541.71460    0 3667  957.00000  541.71460  43.4%     - 1302s
     0     0  541.78203    0 3659  957.00000  541.78203  43.4%     - 1321s
     0     0  541.81077    0 3675  957.00000  541.81077  43.4%     - 1334s
     0     0  542.38846    0 3663  957.00000  542.38846  43.3%     - 1401s
     0     0  542.56812    0 3662  957.00000  542.56812  43.3%     - 1438s
     0     0  542.60867    0 3661  957.00000  542.60867  43.3%     - 1457s
     0     0  542.61855    0 3662  957.00000  542.61855  43.3%     - 1464s
     0     0  543.19268    0 3660  957.00000  543.19268  43.2%     - 1524s
     0     0  543.27549    0 3647  957.00000  543.27549  43.2%     - 1552s
     0     0  543.29459    0 3651  957.00000  543.29459  43.2%     - 1560s
     0     0  543.80015    0 3674  957.00000  543.80015  43.2%     - 1613s
     0     0  543.84442    0 3683  957.00000  543.84442  43.2%     - 1631s
     0     0  543.85552    0 3701  957.00000  543.85552  43.2%     - 1638s
     0     0  544.40551    0 3666  957.00000  544.40551  43.1%     - 1692s
     0     0  544.51363    0 3690  957.00000  544.51363  43.1%     - 1720s
     0     0  544.55967    0 3696  957.00000  544.55967  43.1%     - 1738s
     0     0  544.56604    0 3691  957.00000  544.56604  43.1%     - 1745s
     0     0  545.07768    0 3683  957.00000  545.07768  43.0%     - 1806s
     0     0  545.15708    0 3694  957.00000  545.15708  43.0%     - 1839s
     0     0  545.17152    0 3699  957.00000  545.17152  43.0%     - 1850s
     0     0  545.47165    0 3662  957.00000  545.47165  43.0%     - 1905s
     0     0  545.47165    0 3660  957.00000  545.47165  43.0%     - 1922s
     0     2  545.47899    0 3660  957.00000  545.47899  43.0%     - 2065s
     1     3  551.03067    1 3480  957.00000  545.47899  43.0% 45010 2383s
     2     4  546.63337    1 3619  957.00000  546.63337  42.9% 28378 2467s
     3     5  546.81825    2 3609  957.00000  546.63417  42.9% 20450 2495s
     4     6  546.90974    3 3624  957.00000  546.63417  42.9% 16098 2514s
     5     7  547.44296    4 3617  957.00000  546.63417  42.9% 14255 2561s
     6     8  568.77751    4 3457  957.00000  546.63417  42.9% 33672 3339s
     7     9  547.56298    5 3617  957.00000  546.63417  42.9% 29426 3366s
     8    10  547.64823    6 3604  957.00000  546.63417  42.9% 26058 3497s
     9    11  547.70827    7 3597  957.00000  546.63417  42.9% 23401 3509s
    10    12  547.97740    8 3578  957.00000  546.63417  42.9% 22052 3559s

Cutting planes:
  MIR: 85
  StrongCG: 4
  GUB cover: 1
  Zero half: 61
  RLT: 2135

Explored 11 nodes (503098 simplex iterations) in 3600.02 seconds
Thread count was 1 (of 40 available processors)

Solution count 2: 957 980 

Time limit reached
Best objective 9.570000000000e+02, best bound 5.470000000000e+02, gap 42.8422%

User-callback calls 26618, time in user-callback 0.07 sec
